(set-logic QF_SLIA)
(declare-fun var0 () String)
(assert (str.in_re var0 (re.++ ((_ re.loop 1 2) (re.++ ((_ re.loop 0 10) (str.to_re "hVC")) (re.++ ((_ re.loop 4 19) (str.to_re "LK")) (re.++ ((_ re.loop 4 15) (str.to_re "cW")) ((_ re.loop 2 7) (str.to_re "0")))))) (re.++ ((_ re.loop 0 4) (re.++ ((_ re.loop 0 16) (str.to_re "Y")) (re.++ ((_ re.loop 5 7) (str.to_re "kc")) (re.++ ((_ re.loop 0 20) (str.to_re "lZ")) ((_ re.loop 1 20) (str.to_re "b$")))))) (re.++ ((_ re.loop 0 4) (re.++ ((_ re.loop 2 11) (str.to_re "Q4'")) (re.++ ((_ re.loop 2 18) (str.to_re "*")) (re.++ ((_ re.loop 0 16) (str.to_re "A")) ((_ re.loop 0 16) (str.to_re "IC")))))) ((_ re.loop 1 1) (re.++ ((_ re.loop 3 20) (str.to_re "6j")) (re.++ ((_ re.loop 0 14) (str.to_re "Q")) (re.++ ((_ re.loop 0 15) (str.to_re ":6")) ((_ re.loop 3 10) (str.to_re "qsT")))))))))))
(assert (not (str.in_re var0 (re.++ (re.* re.allchar) (re.++ (re.union (str.to_re "<") (re.union (str.to_re ">") (re.union (str.to_re "'") (re.union (str.to_re "\u0022") (str.to_re "&"))))) (re.* re.allchar))))))
(assert (<= 50 (str.len var0)))
(check-sat)
(get-model)
